c   #vars: 41   #clauses: 177   #literals: 522
c 
p cnf 41 177
-1 -2 0
9 15 16 -37 0
5 6 21 -27 0
4 -26 37 38 0
-7 -8 0
10 31 32 -41 0
24 27 28 -39 0
-11 -12 0
7 8 37 38 0
-13 -14 0
-15 -16 0
-17 -18 0
-19 -20 0
-22 -23 0
1 2 -11 25 0
26 -34 35 36 0
-10 15 16 41 0
-27 -28 0
-29 -30 0
-31 -32 0
-33 -34 0
1 2 33 34 0
-35 -36 0
-37 -38 0
1 2 15 16 0
19 20 39 40 0
-39 -40 0
7 8 17 18 0
3 -17 35 36 0
4 26 -31 -34 0
-1 -15 0
-2 -16 0
-1 -22 0
-2 -23 0
9 -15 37 38 0
-4 26 35 36 0
-2 -25 0
-1 -27 0
-2 -28 0
19 20 33 34 0
-1 -29 0
-2 -30 0
-6 10 -35 41 0
-1 -33 0
-2 -34 0
9 15 16 -19 0
-3 -18 0
11 12 29 30 0
9 19 20 -37 0
-3 -32 0
17 18 35 36 0
9 -15 19 20 0
-3 -36 0
-7 -17 -18 24 0
21 -27 29 30 0
-6 15 16 41 0
-5 21 29 30 0
-4 -32 0
21 27 28 -29 0
-4 -38 0
17 18 37 38 0
-6 10 -31 41 0
-5 -15 0
-6 -16 0
-5 21 27 28 0
5 6 21 -29 0
3 17 18 -35 0
-6 -21 0
5 6 15 16 0
13 14 19 20 0
-5 -39 0
-6 -40 0
4 31 32 -37 0
-5 -41 0
4 26 -34 -37 0
-7 -17 0
-8 -18 0
9 -19 37 38 0
-7 -22 0
-8 -23 0
11 12 33 34 0
-11 13 14 25 0
-8 -24 0
19 20 37 38 0
-7 -37 0
-8 -38 0
10 35 36 -41 0
10 31 32 -35 0
-9 -16 0
10 -31 35 36 0
-9 -20 0
7 8 22 23 0
-9 -38 0
-7 24 27 28 0
-10 -32 0
7 8 24 -39 0
-10 -36 0
7 8 24 -27 0
4 26 -31 -36 0
-11 -22 0
-12 -23 0
-7 24 39 40 0
26 33 34 -36 0
-12 -25 0
1 2 -13 25 0
-11 -29 0
-12 -30 0
10 -16 -35 41 0
-11 -33 0
-12 -34 0
4 -31 37 38 0
22 23 29 30 0
22 23 27 28 0
5 6 39 40 0
-5 -6 0
4 -26 31 32 0
-13 -19 0
-14 -20 0
11 12 22 23 0
-4 26 33 34 0
-14 -25 0
-1 11 12 25 0
-13 -29 0
-14 -30 0
-17 -18 24 -39 0
-13 -33 0
-14 -34 0
4 26 -36 -37 0
-15 -31 0
-16 -32 0
1 2 29 30 0
-15 -35 0
-16 -36 0
-15 -41 0
1 2 27 28 0
-17 -35 0
-18 -36 0
-17 -37 0
-18 -38 0
-17 -18 24 -27 0
-17 -39 0
-18 -40 0
-19 -33 0
-20 -34 0
13 14 29 30 0
-19 -37 0
-20 -38 0
3 -17 31 32 0
-19 -39 0
-20 -40 0
15 16 35 36 0
3 17 18 -31 0
-21 -28 0
3 31 32 -35 0
3 -31 35 36 0
-21 -30 0
1 2 22 23 0
10 -16 -31 41 0
24 -27 39 40 0
-22 -27 0
-23 -28 0
13 14 33 34 0
-22 -29 0
-23 -30 0
22 23 37 38 0
-22 -37 0
-23 -38 0
-1 13 14 25 0
-24 -28 0
11 12 -13 25 0
-24 -40 0
17 18 39 40 0
-26 -33 0
5 6 -16 41 0
15 16 31 32 0
-26 -35 0
5 6 -10 41 0
